n = 100;
C = 499;
w = [990,703,325,10,584,450,374,788,262,44,425,916,784,975,862,300,33,508,760,311,861,931,267,55,101,626,596,313,895,859,328,831,392,411,216,71,123,688,411,393,639,387,868,479,99,110,989,576,557,544,29,534,100,54,86,369,794,860,538,314,550,557,407,797,521,456,752,297,856,587,47,825,809,692,480,920,17,109,511,41,413,360,252,861,888,940,381,905,340,742,613,398,749,163,996,394,58,613,496,504];
p = [990,703,325,10,584,450,374,788,262,44,425,916,784,975,862,300,33,508,760,311,861,931,267,55,101,626,596,313,895,859,328,831,392,411,216,71,123,688,411,393,639,387,868,479,99,110,989,576,557,544,29,534,100,54,86,369,794,860,538,314,550,557,407,797,521,456,752,297,856,587,47,825,809,692,480,920,17,109,511,41,413,360,252,861,888,940,381,905,340,742,613,398,749,163,996,394,58,613,496,504];
